max: +x11+x12+x13+x14+x21+x22+x23+x24+x31+x32+x33+x34+x41+x42+x43+x44;
+x23+x32-1x11 >= 0;
+x31+x24+x33-1x12 >= 0;
+x32+x21+x34-1x13 >= 0;
+x33+x22-1x14 >= 0;
+x13+x33+x42-1x21 >= 0;
+x14+x41+x34+x43-1x22 >= 0;
+x11+x42+x31+x44-1x23 >= 0;
+x12+x43+x32-1x24 >= 0;
+x23+x12+x43-1x31 >= 0;
+x11+x24+x13+x44-1x32 >= 0;
+x21+x12+x41+x14-1x33 >= 0;
+x22+x13+x42-1x34 >= 0;
+x33+x22-1x41 >= 0;
+x21+x34+x23-1x42 >= 0;
+x31+x22+x24-1x43 >= 0;
+x32+x23-1x44 >= 0;
+x23+x32+7x11 <= 8;
+x31+x24+x33+7x12 <= 8;
+x32+x21+x34+7x13 <= 8;
+x33+x22+7x14 <= 8;
+x13+x33+x42+7x21 <= 8;
+x14+x41+x34+x43+7x22 <= 8;
+x11+x42+x31+x44+7x23 <= 8;
+x12+x43+x32+7x24 <= 8;
+x23+x12+x43+7x31 <= 8;
+x11+x24+x13+x44+7x32 <= 8;
+x21+x12+x41+x14+7x33 <= 8;
+x22+x13+x42+7x34 <= 8;
+x33+x22+7x41 <= 8;
+x21+x34+x23+7x42 <= 8;
+x31+x22+x24+7x43 <= 8;
+x32+x23+7x44 <= 8;
bin x11,x12,x13,x14,x21,x22,x23,x24,x31,x32,x33,x34,x41,x42,x43,x44;